&CONTROL
    calculation   = 'nscf'
    pseudo_dir   = './'
    prefix       = 'LFO'
    outdir       = './'
    restart_mode = 'from_scratch'
/

&SYSTEM
    celldm(1)                 = 5.65630e+00
    celldm(2)                 = 7.95940e+00
    celldm(3)                 = 5.60470e+00
    degauss                   = 1.00000e-02
    ecutwfc                   = 1.50000e+02
    ibrav                     = 8 
    nat                       = 20
    nbnd                      = 
    ntyp                      = 3
    occupations               = "smearing"
    smearing                  = "gauss"
    starting_magnetization(1) =  1.00000e-01
    lspinorb                  = .true.
    noncolin                  = .true.
    nosym                     = .true.
    noinv                     = .true.
/

&ELECTRONS
    diagonalization  = 'david'
    conv_thr         =  1.00000e-05
    mixing_mode      = 'plain'
    mixing_beta      =  4.00000e-01
/

ATOMIC_SPECIES
Fe     55.84500  Fe.rel-pz-nc.UPF
La    138.90550  La.rel-pz-nc.UPF  
O      15.99940  O.rel-pz-nc.UPF

ATOMIC_POSITIONS (angstrom)
Fe            0.0275698981        0.0309722644        2.8099227316
Fe            2.8600652072        4.0161563460       -0.0072626936
Fe            0.0260992462        4.0112255512        2.8004886855
Fe            2.8614635940        0.0356257272        0.0011063441
La            0.2562771695        2.0298803142        5.5765872935
La            2.6019475051        5.9866694371        2.7200437026
La            5.4522220973        5.9903972056        0.0137806544
La            3.1071058402        2.0331060850        2.8705653949
O             2.7318999563        2.0122373272        0.4998805568
O             0.1434448032        6.0605163860        3.2656900166
O             2.9760551743        6.0074210046        5.0909700181
O             5.5652546450        1.9588374173        2.3247492768
O             1.6711485758        0.4091976210        3.9899712006
O             1.2628874673        4.3759514180        1.1340230808
O             1.6648057076        3.6467495688        4.0110462597
O             1.2178029650        7.6128272681        1.1601188940
O             4.0364924287        7.6112682664        1.5998897597
O             4.4447111879        3.6446842072        4.4561987640
O             4.0426855703        4.3731953681        1.5784293886
O             4.4902147041        0.4069850027        4.4303760929

K_POINTS {automatic}
 4  4  2  0 0 0
